(declare-fun c () String)
(declare-fun g () String)
(declare-fun d () String)
(declare-fun f () String)
(declare-fun a () String)
(declare-fun h () String)
(assert (= (str.++ "cd" d) (str.++ h "cg")))
(assert (= (str.++ "a" a) (str.++ c f h)))
(assert (= f (str.++ "cac" d g "b")))

(check-sat)
